 

set MATERIALS := Flour Sugar Eggs Chocolate;
set PRODUCTS := Cake Cookies Brownies;
set RECIPES := Cake_Recipe Cookie_Recipe Brownie_Recipe;

param Budget := 5000;

param Material_Cost :=
    Flour 0.5
    Sugar 0.8
    Eggs 0.2
    Chocolate 2.0;

param Product_Revenue :=
    Cake 15
    Cookies 5
    Brownies 8;

param Recipe_Inputs:
                     Flour Sugar Eggs Chocolate :=
    Cake_Recipe      2     1     3    0
    Cookie_Recipe    1     0.5   1    0.2
    Brownie_Recipe   1.5   1.5   2    1.5;

param Recipe_Outputs:
                     Cake Cookies Brownies :=
    Cake_Recipe      1    0       0
    Cookie_Recipe    0    6       0
    Brownie_Recipe   0    0       4;

# Optional constraints
param Min_Product_Production :=
    Cake 10;

param Max_Material_Usage :=
    Chocolate 500;
